TERM = { '.', 's(2)', 's(5)', 's(4)', 'in_1', 'local_1', 'in_2', 'in_4', 'in_3', 's(8)', 's(6)', 's(1)', 's(0)', 's(7)', 's(3)', 'in_0'};
null = '.';
s = 11;
n = 10;
ndeps = 8;
max_registers_sz = 4;
NR = 1;
registers = [|'local_1', 's(7)'|];
dependencies = [|'i32.load8_s_0', 'call[function_index(0)]_6', |'call[function_index(0)]_6', 'i32.load16_u_8', |'i32.store_9', 'i32.store_10', |'i32.load8_s_1', 'call[function_index(0)]_6', |'i32.load16_s_3', 'call[function_index(0)]_6', |'i32.load8_s_4', 'call[function_index(0)]_6', |'i32.load16_u_5', 'call[function_index(0)]_6', |'i32.load16_u_8', 'i32.store_9'|];
GET_ENUM = { GET1, GET2, GET3, GET4, GET5};
SET_ENUM = { SET1, SET2, SET3, SET4, SET5};
TEE_ENUM = { TEE1, TEE2, TEE3, TEE4, TEE5};
N = 10;
OP = { 'call[function_index(0)]_6', 'i32.load8_s_0', 'i32.load8_s_1', 'i32.add_0', 'i32.load16_s_3', 'i32.load8_s_4', 'i32.load16_u_5', 'i32.load16_u_8', 'i32.store_9', 'i32.store_10' };
in_ops = [2, 1, 1, 2, 1, 1, 1, 1, 2, 2 ];
out_ops = [2, 1, 1, 1, 1, 1, 1, 1, 0, 0 ];
in1 = ['s(5)', 'in_0', 's(0)', 's(1)', 's(2)', 's(3)', 's(4)', 's(7)', 's(8)', 'in_3' ];
in2 = ['in_2', '.', '.', 'in_1', '.', '.', '.', '.', 's(6)', 'in_4' ];
in3 = ['.', '.', '.', '.', '.', '.', '.', '.', '.', '.' ];
out1 = ['s(7)', 's(0)', 's(1)', 's(2)', 's(3)', 's(4)', 's(5)', 's(8)', '.', '.' ];
out2 = ['s(6)', '.', '.', '.', '.', '.', '.', '.', '.', '.' ];
out3 = ['.', '.', '.', '.', '.', '.', '.', '.', '.', '.' ];
comm = [false, false, false, true, false, false, false, false, false, false ];
gas = [1, 1, 1, 1, 1, 1, 1, 1, 1, 1 ];
sz = [1, 1, 1, 1, 1, 1, 1, 1, 1, 1 ];
stor = [true, false, false, false, false, false, false, false, true, true ];
lb = [ 1, 1, 1, 1, 1, 1, 1, 1, 1, 1 ];
ub = [ 11, 11, 11, 11, 11, 11, 11, 11, 11, 11 ];
startstack = [ 'in_0', 'in_1', 'in_2', 'in_3', 'in_4', null, null, null, null, null ];
endstack = [ null, null, null, null, null, null, null, null, null, null ];
